
Gurobi 9.1.2 (linux64, gurobi_cl) logging started Fri Jul 30 13:52:26 2021

Using license file /opt/gurobi/gurobi.lic
Set parameter TimeLimit to value 600
Set parameter LogFile to value 912-Presolve1-glass4-0.log
Set parameter Presolve to value 1

Gurobi Optimizer version 9.1.2 build v9.1.2rc0 (linux64)
Copyright (c) 2021, Gurobi Optimization, LLC

Read MPS format model from file /nfs/models/mip/glass4.mps.bz2
Reading time = 0.00 seconds
glass4: 396 rows, 322 columns, 1815 nonzeros
Thread count: 4 physical cores, 8 logical processors, using up to 8 threads
Optimize a model with 396 rows, 322 columns and 1815 nonzeros
Model fingerprint: 0x0a9d9037
Variable types: 20 continuous, 302 integer (0 binary)
Coefficient statistics:
  Matrix range     [1e+00, 8e+06]
  Objective range  [1e+00, 1e+06]
  Bounds range     [1e+00, 8e+02]
  RHS range        [1e+00, 8e+06]
Presolve removed 4 rows and 6 columns
Presolve time: 0.00s
Presolved: 392 rows, 316 columns, 1811 nonzeros
Variable types: 19 continuous, 297 integer (297 binary)
Found heuristic solution: objective 3.133356e+09

Root relaxation: objective 8.000024e+08, 72 iterations, 0.00 seconds

    Nodes    |    Current Node    |     Objective Bounds      |     Work
 Expl Unexpl |  Obj  Depth IntInf | Incumbent    BestBd   Gap | It/Node Time

     0     0 8.0000e+08    0   72 3.1334e+09 8.0000e+08  74.5%     -    0s
H    0     0                    3.100022e+09 8.0000e+08  74.2%     -    0s
H    0     0                    2.400018e+09 8.0000e+08  66.7%     -    0s
H    0     0                    2.200018e+09 8.0000e+08  63.6%     -    0s
     0     0 8.0000e+08    0   72 2.2000e+09 8.0000e+08  63.6%     -    0s
     0     0 8.0000e+08    0   72 2.2000e+09 8.0000e+08  63.6%     -    0s
     0     0 8.0000e+08    0   77 2.2000e+09 8.0000e+08  63.6%     -    0s
     0     0 8.0000e+08    0   75 2.2000e+09 8.0000e+08  63.6%     -    0s
H    0     0                    2.100015e+09 8.0000e+08  61.9%     -    0s
H    0     2                    2.075015e+09 8.0000e+08  61.4%     -    0s
     0     2 8.0000e+08    0   75 2.0750e+09 8.0000e+08  61.4%     -    0s
H   33    40                    2.000014e+09 8.0000e+08  60.0%  22.0    0s
H  564   574                    1.950016e+09 8.0000e+08  59.0%   5.8    0s
H  647   664                    1.833348e+09 8.0000e+08  56.4%   5.9    0s
H  744   650                    1.791681e+09 8.0000e+08  55.3%   5.9    0s
H 1382  1077                    1.775015e+09 8.0000e+08  54.9%   6.2    0s
H 1383  1026                    1.750015e+09 8.0000e+08  54.3%   6.3    0s
H 1416   998                    1.733348e+09 8.0000e+08  53.8%   6.2    0s
H 1423   954                    1.700014e+09 8.0000e+08  52.9%   6.2    0s
H 1943  1162                    1.700014e+09 8.0000e+08  52.9%   5.4    0s
H 1947  1098                    1.650015e+09 8.0000e+08  51.5%   5.4    0s
H 2075  1124                    1.571444e+09 8.0000e+08  49.1%   5.6    0s
H15660 10220                    1.521443e+09 9.0000e+08  40.8%   4.3    1s
H30518 14092                    1.516681e+09 9.0000e+08  40.7%   4.0    2s
H30520 13388                    1.510015e+09 9.0000e+08  40.4%   4.0    2s
H32523 13226                    1.510015e+09 9.0000e+08  40.4%   4.8    4s
 35469 14277 1.0077e+09   41   52 1.5100e+09 9.0001e+08  40.4%   5.5    5s
*46012 14295              57    1.500013e+09 9.0001e+08  40.0%   6.6    7s
*52057 13409             100    1.500013e+09 9.6667e+08  35.6%   7.2    8s
H52413 11126                    1.480013e+09 9.7769e+08  33.9%   7.2    8s
*52418 10519             102    1.466680e+09 9.7769e+08  33.3%   7.2    8s
*66448 11249              57    1.450016e+09 1.0000e+09  31.0%   6.9    8s
*66449 10840              56    1.433349e+09 1.0000e+09  30.2%   6.9    8s
H66922 10392                    1.400013e+09 1.0000e+09  28.6%   7.0    8s
 83051 12680 1.1000e+09   46   56 1.4000e+09 1.1000e+09  21.4%   7.5   10s
*115500 17349              70    1.400013e+09 1.2000e+09  14.3%   7.5   12s
*160114  2263              71    1.200013e+09 1.2000e+09  0.00%   7.2   14s

Cutting planes:
  Gomory: 14
  Cover: 2
  Implied bound: 7
  Projected implied bound: 2
  MIR: 7
  Flow cover: 34
  RLT: 5
  Relax-and-lift: 10

Explored 160183 nodes (1154069 simplex iterations) in 14.87 seconds
Thread count was 8 (of 8 available processors)

Solution count 10: 1.20001e+09 1.40001e+09 1.40001e+09 ... 1.51001e+09

Optimal solution found (tolerance 1.00e-04)
Best objective 1.200012600000e+09, best bound 1.200008900000e+09, gap 0.0003%
